param n:= 18;

set T:= 
1
2
3
4
5
6
7
8
9
10
11
12
13
14
15
16
17
18
;

set F:= 
100
120
140
160
180
200
A
B
C
E
;

set P:= 
1
2
3
4
5
6
7
;


set TF[1,1]:=
140
;

set TF[1,2]:=
100
;

set TF[1,3]:=
200
;

set TF[1,4]:=
140
;

set TF[1,5]:=
120
;

set TF[1,6]:=
180
;

set TF[1,7]:=
200
;

set TF[1,8]:=
180
;

set TF[1,9]:=
120
;

set TF[1,10]:=
120
;

set TF[1,11]:=
200
;

set TF[1,12]:=
120
;

set TF[1,13]:=
120
;

set TF[1,14]:=
120
;

set TF[1,15]:=
120
;

set TF[1,16]:=
180
;

set TF[1,17]:=
120
;

set TF[1,18]:=
140
;

set TF[2,1]:=
120
;

set TF[2,2]:=
100
;

set TF[2,3]:=
200
;

set TF[2,4]:=
200
;

set TF[2,5]:=
100
;

set TF[2,6]:=
160
;

set TF[2,7]:=
160
;

set TF[2,8]:=
100
;

set TF[2,9]:=
120
;

set TF[2,10]:=
180
;

set TF[2,11]:=
180
;

set TF[2,12]:=
140
;

set TF[2,13]:=
200
;

set TF[2,14]:=
100
;

set TF[2,15]:=
200
;

set TF[2,16]:=
100
;

set TF[2,17]:=
100
;

set TF[2,18]:=
200
;

set TF[3,1]:=
160
;

set TF[3,2]:=
100
;

set TF[3,3]:=
200
;

set TF[3,4]:=
200
;

set TF[3,5]:=
140
;

set TF[3,6]:=
180
;

set TF[3,7]:=
100
;

set TF[3,8]:=
200
;

set TF[3,9]:=
180
;

set TF[3,10]:=
200
;

set TF[3,11]:=
200
;

set TF[3,12]:=
140
;

set TF[3,13]:=
160
;

set TF[3,14]:=
200
;

set TF[3,15]:=
100
;

set TF[3,16]:=
180
;

set TF[3,17]:=
200
;

set TF[3,18]:=
120
;

set TF[4,1]:=

;

set TF[4,2]:=

;

set TF[4,3]:=

;

set TF[4,4]:=

;

set TF[4,5]:=

;

set TF[4,6]:=

;

set TF[4,7]:=

;

set TF[4,8]:=

;

set TF[4,9]:=

;

set TF[4,10]:=

;

set TF[4,11]:=

;

set TF[4,12]:=

;

set TF[4,13]:=

;

set TF[4,14]:=

;

set TF[4,15]:=

;

set TF[4,16]:=

;

set TF[4,17]:=

;

set TF[4,18]:=

;

set TF[5,1]:=

;

set TF[5,2]:=

;

set TF[5,3]:=

;

set TF[5,4]:=

;

set TF[5,5]:=

;

set TF[5,6]:=

;

set TF[5,7]:=

;

set TF[5,8]:=

;

set TF[5,9]:=

;

set TF[5,10]:=

;

set TF[5,11]:=

;

set TF[5,12]:=

;

set TF[5,13]:=

;

set TF[5,14]:=

;

set TF[5,15]:=

;

set TF[5,16]:=

;

set TF[5,17]:=

;

set TF[5,18]:=

;

set TF[6,1]:=
E
;

set TF[6,2]:=
C
;

set TF[6,3]:=
E
;

set TF[6,4]:=
A
;

set TF[6,5]:=
A
;

set TF[6,6]:=
B
;

set TF[6,7]:=
B
;

set TF[6,8]:=
A
;

set TF[6,9]:=
B
;

set TF[6,10]:=
B
;

set TF[6,11]:=
E
;

set TF[6,12]:=
C
;

set TF[6,13]:=
A
;

set TF[6,14]:=
A
;

set TF[6,15]:=
C
;

set TF[6,16]:=
C
;

set TF[6,17]:=
C
;

set TF[6,18]:=
C
;

set TF[7,1]:=

;

set TF[7,2]:=

;

set TF[7,3]:=

;

set TF[7,4]:=

;

set TF[7,5]:=

;

set TF[7,6]:=

;

set TF[7,7]:=

;

set TF[7,8]:=

;

set TF[7,9]:=

;

set TF[7,10]:=

;

set TF[7,11]:=

;

set TF[7,12]:=

;

set TF[7,13]:=

;

set TF[7,14]:=

;

set TF[7,15]:=

;

set TF[7,16]:=

;

set TF[7,17]:=

;

set TF[7,18]:=

;



